1 78 29 33 34 79 81
2 40 26 53 58
3 8 45 46 82
4 55 4 25 54
5 90 10 30 32 63
6 42 43
7 68 3 12 24 50 76 77 80
8 44 14 16 38 61 85 86 91 100
9 9 20 35 51 71
10 39 23 67
11 19 11 47 48 62
12 74 21 22 41 56 72 73 75
13 31 1 69 70 88
14 95 6 13 37 59 87 92 93 94 96 97 98 99
15 101 27 28
16 84 5 17 60 83
17 18 7 52 89
18 49 36 64
19 65 66
20 57 2 15
